p cnf 45	3064
1	2	4	0
-1	-2	-4	0
1	2	8	0
-1	-2	-8	0
1	2	11	0
-1	-2	-11	0
1	2	15	0
-1	-2	-15	0
1	2	17	0
-1	-2	-17	0
1	2	20	0
-1	-2	-20	0
1	2	22	0
-1	-2	-22	0
1	2	29	0
-1	-2	-29	0
1	2	32	0
-1	-2	-32	0
1	3	13	0
-1	-3	-13	0
1	3	14	0
-1	-3	-14	0
1	3	19	0
-1	-3	-19	0
1	3	24	0
-1	-3	-24	0
1	3	29	0
-1	-3	-29	0
1	3	30	0
-1	-3	-30	0
1	3	33	0
-1	-3	-33	0
1	3	34	0
-1	-3	-34	0
1	4	8	0
-1	-4	-8	0
1	4	11	0
-1	-4	-11	0
1	4	13	0
-1	-4	-13	0
1	4	15	0
-1	-4	-15	0
1	4	16	0
-1	-4	-16	0
1	4	17	0
-1	-4	-17	0
1	4	19	0
-1	-4	-19	0
1	4	30	0
-1	-4	-30	0
1	4	32	0
-1	-4	-32	0
1	4	33	0
-1	-4	-33	0
1	4	34	0
-1	-4	-34	0
1	7	13	0
-1	-7	-13	0
1	7	14	0
-1	-7	-14	0
1	7	15	0
-1	-7	-15	0
1	7	16	0
-1	-7	-16	0
1	7	19	0
-1	-7	-19	0
1	7	24	0
-1	-7	-24	0
1	7	33	0
-1	-7	-33	0
1	7	35	0
-1	-7	-35	0
1	8	11	0
-1	-8	-11	0
1	8	13	0
-1	-8	-13	0
1	8	14	0
-1	-8	-14	0
1	8	17	0
-1	-8	-17	0
1	8	19	0
-1	-8	-19	0
1	8	22	0
-1	-8	-22	0
1	8	24	0
-1	-8	-24	0
1	8	32	0
-1	-8	-32	0
1	8	34	0
-1	-8	-34	0
1	11	14	0
-1	-11	-14	0
1	11	15	0
-1	-11	-15	0
1	11	16	0
-1	-11	-16	0
1	11	19	0
-1	-11	-19	0
1	11	29	0
-1	-11	-29	0
1	11	32	0
-1	-11	-32	0
1	11	35	0
-1	-11	-35	0
1	11	41	0
-1	-11	-41	0
1	13	15	0
-1	-13	-15	0
1	13	16	0
-1	-13	-16	0
1	13	20	0
-1	-13	-20	0
1	13	22	0
-1	-13	-22	0
1	13	24	0
-1	-13	-24	0
1	13	30	0
-1	-13	-30	0
1	13	33	0
-1	-13	-33	0
1	13	34	0
-1	-13	-34	0
1	14	17	0
-1	-14	-17	0
1	14	24	0
-1	-14	-24	0
1	14	29	0
-1	-14	-29	0
1	14	30	0
-1	-14	-30	0
1	14	32	0
-1	-14	-32	0
1	14	33	0
-1	-14	-33	0
1	14	34	0
-1	-14	-34	0
1	14	35	0
-1	-14	-35	0
1	15	16	0
-1	-15	-16	0
1	15	30	0
-1	-15	-30	0
1	15	32	0
-1	-15	-32	0
1	15	33	0
-1	-15	-33	0
1	15	34	0
-1	-15	-34	0
1	15	35	0
-1	-15	-35	0
1	16	24	0
-1	-16	-24	0
1	16	33	0
-1	-16	-33	0
1	16	34	0
-1	-16	-34	0
1	16	41	0
-1	-16	-41	0
1	17	19	0
-1	-17	-19	0
1	17	20	0
-1	-17	-20	0
1	17	22	0
-1	-17	-22	0
1	17	24	0
-1	-17	-24	0
1	17	30	0
-1	-17	-30	0
1	17	32	0
-1	-17	-32	0
1	17	33	0
-1	-17	-33	0
1	17	34	0
-1	-17	-34	0
1	17	35	0
-1	-17	-35	0
1	19	20	0
-1	-19	-20	0
1	19	22	0
-1	-19	-22	0
1	19	24	0
-1	-19	-24	0
1	19	30	0
-1	-19	-30	0
1	20	22	0
-1	-20	-22	0
1	20	29	0
-1	-20	-29	0
1	20	30	0
-1	-20	-30	0
1	22	24	0
-1	-22	-24	0
1	22	29	0
-1	-22	-29	0
1	22	32	0
-1	-22	-32	0
1	24	30	0
-1	-24	-30	0
1	24	33	0
-1	-24	-33	0
1	24	35	0
-1	-24	-35	0
1	24	41	0
-1	-24	-41	0
1	29	32	0
-1	-29	-32	0
1	29	41	0
-1	-29	-41	0
1	30	33	0
-1	-30	-33	0
1	30	41	0
-1	-30	-41	0
1	32	33	0
-1	-32	-33	0
1	32	34	0
-1	-32	-34	0
1	33	34	0
-1	-33	-34	0
1	33	35	0
-1	-33	-35	0
1	34	35	0
-1	-34	-35	0
1	34	41	0
-1	-34	-41	0
1	35	41	0
-1	-35	-41	0
2	4	6	0
-2	-4	-6	0
2	4	8	0
-2	-4	-8	0
2	4	11	0
-2	-4	-11	0
2	4	15	0
-2	-4	-15	0
2	4	17	0
-2	-4	-17	0
2	4	25	0
-2	-4	-25	0
2	4	28	0
-2	-4	-28	0
2	4	31	0
-2	-4	-31	0
2	4	32	0
-2	-4	-32	0
2	4	37	0
-2	-4	-37	0
2	6	17	0
-2	-6	-17	0
2	6	20	0
-2	-6	-20	0
2	6	22	0
-2	-6	-22	0
2	6	25	0
-2	-6	-25	0
2	6	29	0
-2	-6	-29	0
2	6	31	0
-2	-6	-31	0
2	6	38	0
-2	-6	-38	0
2	8	11	0
-2	-8	-11	0
2	8	17	0
-2	-8	-17	0
2	8	22	0
-2	-8	-22	0
2	8	32	0
-2	-8	-32	0
2	8	37	0
-2	-8	-37	0
2	8	38	0
-2	-8	-38	0
2	11	15	0
-2	-11	-15	0
2	11	25	0
-2	-11	-25	0
2	11	28	0
-2	-11	-28	0
2	11	29	0
-2	-11	-29	0
2	11	31	0
-2	-11	-31	0
2	11	32	0
-2	-11	-32	0
2	11	39	0
-2	-11	-39	0
2	11	40	0
-2	-11	-40	0
2	15	31	0
-2	-15	-31	0
2	15	32	0
-2	-15	-32	0
2	15	37	0
-2	-15	-37	0
2	15	39	0
-2	-15	-39	0
2	15	40	0
-2	-15	-40	0
2	17	20	0
-2	-17	-20	0
2	17	22	0
-2	-17	-22	0
2	17	32	0
-2	-17	-32	0
2	17	40	0
-2	-17	-40	0
2	20	22	0
-2	-20	-22	0
2	20	28	0
-2	-20	-28	0
2	20	29	0
-2	-20	-29	0
2	20	37	0
-2	-20	-37	0
2	20	38	0
-2	-20	-38	0
2	20	39	0
-2	-20	-39	0
2	20	40	0
-2	-20	-40	0
2	22	25	0
-2	-22	-25	0
2	22	28	0
-2	-22	-28	0
2	22	29	0
-2	-22	-29	0
2	22	32	0
-2	-22	-32	0
2	25	29	0
-2	-25	-29	0
2	25	32	0
-2	-25	-32	0
2	28	29	0
-2	-28	-29	0
2	28	31	0
-2	-28	-31	0
2	28	38	0
-2	-28	-38	0
2	29	32	0
-2	-29	-32	0
2	29	37	0
-2	-29	-37	0
2	29	39	0
-2	-29	-39	0
2	32	37	0
-2	-32	-37	0
2	32	38	0
-2	-32	-38	0
2	32	40	0
-2	-32	-40	0
2	37	39	0
-2	-37	-39	0
2	39	40	0
-2	-39	-40	0
3	9	23	0
-3	-9	-23	0
3	9	24	0
-3	-9	-24	0
3	9	28	0
-3	-9	-28	0
3	9	29	0
-3	-9	-29	0
3	9	33	0
-3	-9	-33	0
3	9	42	0
-3	-9	-42	0
3	12	13	0
-3	-12	-13	0
3	12	18	0
-3	-12	-18	0
3	12	26	0
-3	-12	-26	0
3	12	27	0
-3	-12	-27	0
3	12	29	0
-3	-12	-29	0
3	12	30	0
-3	-12	-30	0
3	12	31	0
-3	-12	-31	0
3	12	33	0
-3	-12	-33	0
3	12	42	0
-3	-12	-42	0
3	13	18	0
-3	-13	-18	0
3	13	24	0
-3	-13	-24	0
3	13	26	0
-3	-13	-26	0
3	13	28	0
-3	-13	-28	0
3	13	30	0
-3	-13	-30	0
3	13	33	0
-3	-13	-33	0
3	13	34	0
-3	-13	-34	0
3	13	40	0
-3	-13	-40	0
3	13	42	0
-3	-13	-42	0
3	13	43	0
-3	-13	-43	0
3	14	24	0
-3	-14	-24	0
3	14	26	0
-3	-14	-26	0
3	14	28	0
-3	-14	-28	0
3	14	29	0
-3	-14	-29	0
3	14	30	0
-3	-14	-30	0
3	14	33	0
-3	-14	-33	0
3	14	34	0
-3	-14	-34	0
3	14	36	0
-3	-14	-36	0
3	14	37	0
-3	-14	-37	0
3	14	38	0
-3	-14	-38	0
3	14	40	0
-3	-14	-40	0
3	14	42	0
-3	-14	-42	0
3	14	43	0
-3	-14	-43	0
3	18	23	0
-3	-18	-23	0
3	18	24	0
-3	-18	-24	0
3	18	27	0
-3	-18	-27	0
3	18	28	0
-3	-18	-28	0
3	18	29	0
-3	-18	-29	0
3	18	31	0
-3	-18	-31	0
3	18	33	0
-3	-18	-33	0
3	18	36	0
-3	-18	-36	0
3	18	37	0
-3	-18	-37	0
3	18	38	0
-3	-18	-38	0
3	18	42	0
-3	-18	-42	0
3	19	24	0
-3	-19	-24	0
3	19	27	0
-3	-19	-27	0
3	19	28	0
-3	-19	-28	0
3	19	30	0
-3	-19	-30	0
3	19	31	0
-3	-19	-31	0
3	19	36	0
-3	-19	-36	0
3	19	37	0
-3	-19	-37	0
3	19	38	0
-3	-19	-38	0
3	19	40	0
-3	-19	-40	0
3	19	43	0
-3	-19	-43	0
3	23	24	0
-3	-23	-24	0
3	23	26	0
-3	-23	-26	0
3	23	27	0
-3	-23	-27	0
3	23	28	0
-3	-23	-28	0
3	23	30	0
-3	-23	-30	0
3	23	31	0
-3	-23	-31	0
3	23	34	0
-3	-23	-34	0
3	23	38	0
-3	-23	-38	0
3	23	43	0
-3	-23	-43	0
3	24	26	0
-3	-24	-26	0
3	24	30	0
-3	-24	-30	0
3	24	33	0
-3	-24	-33	0
3	24	38	0
-3	-24	-38	0
3	24	40	0
-3	-24	-40	0
3	24	42	0
-3	-24	-42	0
3	24	43	0
-3	-24	-43	0
3	26	28	0
-3	-26	-28	0
3	26	29	0
-3	-26	-29	0
3	26	30	0
-3	-26	-30	0
3	26	31	0
-3	-26	-31	0
3	26	34	0
-3	-26	-34	0
3	26	36	0
-3	-26	-36	0
3	26	40	0
-3	-26	-40	0
3	26	42	0
-3	-26	-42	0
3	26	43	0
-3	-26	-43	0
3	27	28	0
-3	-27	-28	0
3	27	29	0
-3	-27	-29	0
3	27	30	0
-3	-27	-30	0
3	27	31	0
-3	-27	-31	0
3	27	33	0
-3	-27	-33	0
3	27	34	0
-3	-27	-34	0
3	27	36	0
-3	-27	-36	0
3	27	38	0
-3	-27	-38	0
3	27	43	0
-3	-27	-43	0
3	28	29	0
-3	-28	-29	0
3	28	31	0
-3	-28	-31	0
3	28	34	0
-3	-28	-34	0
3	28	38	0
-3	-28	-38	0
3	28	42	0
-3	-28	-42	0
3	28	43	0
-3	-28	-43	0
3	29	36	0
-3	-29	-36	0
3	29	37	0
-3	-29	-37	0
3	29	43	0
-3	-29	-43	0
3	30	31	0
-3	-30	-31	0
3	30	33	0
-3	-30	-33	0
3	30	36	0
-3	-30	-36	0
3	30	37	0
-3	-30	-37	0
3	30	40	0
-3	-30	-40	0
3	31	34	0
-3	-31	-34	0
3	31	43	0
-3	-31	-43	0
3	33	34	0
-3	-33	-34	0
3	33	40	0
-3	-33	-40	0
3	34	36	0
-3	-34	-36	0
3	34	40	0
-3	-34	-40	0
3	36	38	0
-3	-36	-38	0
3	36	40	0
-3	-36	-40	0
3	36	42	0
-3	-36	-42	0
3	37	42	0
-3	-37	-42	0
3	37	43	0
-3	-37	-43	0
3	38	43	0
-3	-38	-43	0
4	5	6	0
-4	-5	-6	0
4	5	17	0
-4	-5	-17	0
4	5	23	0
-4	-5	-23	0
4	5	25	0
-4	-5	-25	0
4	5	26	0
-4	-5	-26	0
4	5	27	0
-4	-5	-27	0
4	5	28	0
-4	-5	-28	0
4	5	30	0
-4	-5	-30	0
4	5	31	0
-4	-5	-31	0
4	5	33	0
-4	-5	-33	0
4	6	9	0
-4	-6	-9	0
4	6	16	0
-4	-6	-16	0
4	6	17	0
-4	-6	-17	0
4	6	19	0
-4	-6	-19	0
4	6	25	0
-4	-6	-25	0
4	6	26	0
-4	-6	-26	0
4	6	31	0
-4	-6	-31	0
4	6	33	0
-4	-6	-33	0
4	6	34	0
-4	-6	-34	0
4	8	10	0
-4	-8	-10	0
4	8	11	0
-4	-8	-11	0
4	8	12	0
-4	-8	-12	0
4	8	13	0
-4	-8	-13	0
4	8	17	0
-4	-8	-17	0
4	8	19	0
-4	-8	-19	0
4	8	23	0
-4	-8	-23	0
4	8	27	0
-4	-8	-27	0
4	8	32	0
-4	-8	-32	0
4	8	34	0
-4	-8	-34	0
4	8	36	0
-4	-8	-36	0
4	8	37	0
-4	-8	-37	0
4	8	42	0
-4	-8	-42	0
4	9	10	0
-4	-9	-10	0
4	9	16	0
-4	-9	-16	0
4	9	17	0
-4	-9	-17	0
4	9	23	0
-4	-9	-23	0
4	9	28	0
-4	-9	-28	0
4	9	32	0
-4	-9	-32	0
4	9	33	0
-4	-9	-33	0
4	9	42	0
-4	-9	-42	0
4	10	13	0
-4	-10	-13	0
4	10	15	0
-4	-10	-15	0
4	10	18	0
-4	-10	-18	0
4	10	25	0
-4	-10	-25	0
4	10	26	0
-4	-10	-26	0
4	10	27	0
-4	-10	-27	0
4	10	28	0
-4	-10	-28	0
4	10	30	0
-4	-10	-30	0
4	10	31	0
-4	-10	-31	0
4	10	36	0
-4	-10	-36	0
4	10	42	0
-4	-10	-42	0
4	11	15	0
-4	-11	-15	0
4	11	16	0
-4	-11	-16	0
4	11	18	0
-4	-11	-18	0
4	11	19	0
-4	-11	-19	0
4	11	25	0
-4	-11	-25	0
4	11	26	0
-4	-11	-26	0
4	11	28	0
-4	-11	-28	0
4	11	31	0
-4	-11	-31	0
4	11	32	0
-4	-11	-32	0
4	12	13	0
-4	-12	-13	0
4	12	16	0
-4	-12	-16	0
4	12	17	0
-4	-12	-17	0
4	12	18	0
-4	-12	-18	0
4	12	25	0
-4	-12	-25	0
4	12	26	0
-4	-12	-26	0
4	12	27	0
-4	-12	-27	0
4	12	30	0
-4	-12	-30	0
4	12	31	0
-4	-12	-31	0
4	12	32	0
-4	-12	-32	0
4	12	33	0
-4	-12	-33	0
4	12	42	0
-4	-12	-42	0
4	13	15	0
-4	-13	-15	0
4	13	16	0
-4	-13	-16	0
4	13	18	0
-4	-13	-18	0
4	13	25	0
-4	-13	-25	0
4	13	26	0
-4	-13	-26	0
4	13	28	0
-4	-13	-28	0
4	13	30	0
-4	-13	-30	0
4	13	33	0
-4	-13	-33	0
4	13	34	0
-4	-13	-34	0
4	13	42	0
-4	-13	-42	0
4	15	16	0
-4	-15	-16	0
4	15	23	0
-4	-15	-23	0
4	15	27	0
-4	-15	-27	0
4	15	30	0
-4	-15	-30	0
4	15	31	0
-4	-15	-31	0
4	15	32	0
-4	-15	-32	0
4	15	33	0
-4	-15	-33	0
4	15	34	0
-4	-15	-34	0
4	15	36	0
-4	-15	-36	0
4	15	37	0
-4	-15	-37	0
4	16	18	0
-4	-16	-18	0
4	16	26	0
-4	-16	-26	0
4	16	27	0
-4	-16	-27	0
4	16	33	0
-4	-16	-33	0
4	16	34	0
-4	-16	-34	0
4	17	18	0
-4	-17	-18	0
4	17	19	0
-4	-17	-19	0
4	17	27	0
-4	-17	-27	0
4	17	30	0
-4	-17	-30	0
4	17	32	0
-4	-17	-32	0
4	17	33	0
-4	-17	-33	0
4	17	34	0
-4	-17	-34	0
4	17	42	0
-4	-17	-42	0
4	18	23	0
-4	-18	-23	0
4	18	25	0
-4	-18	-25	0
4	18	27	0
-4	-18	-27	0
4	18	28	0
-4	-18	-28	0
4	18	31	0
-4	-18	-31	0
4	18	33	0
-4	-18	-33	0
4	18	36	0
-4	-18	-36	0
4	18	37	0
-4	-18	-37	0
4	18	42	0
-4	-18	-42	0
4	19	25	0
-4	-19	-25	0
4	19	27	0
-4	-19	-27	0
4	19	28	0
-4	-19	-28	0
4	19	30	0
-4	-19	-30	0
4	19	31	0
-4	-19	-31	0
4	19	36	0
-4	-19	-36	0
4	19	37	0
-4	-19	-37	0
4	23	25	0
-4	-23	-25	0
4	23	26	0
-4	-23	-26	0
4	23	27	0
-4	-23	-27	0
4	23	28	0
-4	-23	-28	0
4	23	30	0
-4	-23	-30	0
4	23	31	0
-4	-23	-31	0
4	23	32	0
-4	-23	-32	0
4	23	34	0
-4	-23	-34	0
4	25	27	0
-4	-25	-27	0
4	25	32	0
-4	-25	-32	0
4	25	42	0
-4	-25	-42	0
4	26	28	0
-4	-26	-28	0
4	26	30	0
-4	-26	-30	0
4	26	31	0
-4	-26	-31	0
4	26	34	0
-4	-26	-34	0
4	26	36	0
-4	-26	-36	0
4	26	42	0
-4	-26	-42	0
4	27	28	0
-4	-27	-28	0
4	27	30	0
-4	-27	-30	0
4	27	31	0
-4	-27	-31	0
4	27	33	0
-4	-27	-33	0
4	27	34	0
-4	-27	-34	0
4	27	36	0
-4	-27	-36	0
4	28	31	0
-4	-28	-31	0
4	28	34	0
-4	-28	-34	0
4	28	42	0
-4	-28	-42	0
4	30	31	0
-4	-30	-31	0
4	30	33	0
-4	-30	-33	0
4	30	36	0
-4	-30	-36	0
4	30	37	0
-4	-30	-37	0
4	31	34	0
-4	-31	-34	0
4	32	33	0
-4	-32	-33	0
4	32	34	0
-4	-32	-34	0
4	32	36	0
-4	-32	-36	0
4	32	37	0
-4	-32	-37	0
4	32	42	0
-4	-32	-42	0
4	33	34	0
-4	-33	-34	0
4	34	36	0
-4	-34	-36	0
4	36	42	0
-4	-36	-42	0
4	37	42	0
-4	-37	-42	0
5	6	7	0
-5	-6	-7	0
5	6	17	0
-5	-6	-17	0
5	6	22	0
-5	-6	-22	0
5	6	25	0
-5	-6	-25	0
5	6	26	0
-5	-6	-26	0
5	6	31	0
-5	-6	-31	0
5	6	33	0
-5	-6	-33	0
5	6	38	0
-5	-6	-38	0
5	7	14	0
-5	-7	-14	0
5	7	23	0
-5	-7	-23	0
5	7	25	0
-5	-7	-25	0
5	7	27	0
-5	-7	-27	0
5	7	31	0
-5	-7	-31	0
5	7	33	0
-5	-7	-33	0
5	7	40	0
-5	-7	-40	0
5	7	43	0
-5	-7	-43	0
5	14	17	0
-5	-14	-17	0
5	14	26	0
-5	-14	-26	0
5	14	28	0
-5	-14	-28	0
5	14	30	0
-5	-14	-30	0
5	14	33	0
-5	-14	-33	0
5	14	38	0
-5	-14	-38	0
5	14	40	0
-5	-14	-40	0
5	14	43	0
-5	-14	-43	0
5	17	22	0
-5	-17	-22	0
5	17	27	0
-5	-17	-27	0
5	17	30	0
-5	-17	-30	0
5	17	33	0
-5	-17	-33	0
5	17	40	0
-5	-17	-40	0
5	22	23	0
-5	-22	-23	0
5	22	25	0
-5	-22	-25	0
5	22	26	0
-5	-22	-26	0
5	22	28	0
-5	-22	-28	0
5	22	43	0
-5	-22	-43	0
5	23	25	0
-5	-23	-25	0
5	23	26	0
-5	-23	-26	0
5	23	27	0
-5	-23	-27	0
5	23	28	0
-5	-23	-28	0
5	23	30	0
-5	-23	-30	0
5	23	31	0
-5	-23	-31	0
5	23	38	0
-5	-23	-38	0
5	23	43	0
-5	-23	-43	0
5	25	27	0
-5	-25	-27	0
5	25	43	0
-5	-25	-43	0
5	26	28	0
-5	-26	-28	0
5	26	30	0
-5	-26	-30	0
5	26	31	0
-5	-26	-31	0
5	26	40	0
-5	-26	-40	0
5	26	43	0
-5	-26	-43	0
5	27	28	0
-5	-27	-28	0
5	27	30	0
-5	-27	-30	0
5	27	31	0
-5	-27	-31	0
5	27	33	0
-5	-27	-33	0
5	27	38	0
-5	-27	-38	0
5	27	43	0
-5	-27	-43	0
5	27	44	0
-5	-27	-44	0
5	28	31	0
-5	-28	-31	0
5	28	38	0
-5	-28	-38	0
5	28	43	0
-5	-28	-43	0
5	30	31	0
-5	-30	-31	0
5	30	33	0
-5	-30	-33	0
5	30	40	0
-5	-30	-40	0
5	30	44	0
-5	-30	-44	0
5	31	43	0
-5	-31	-43	0
5	33	40	0
-5	-33	-40	0
5	38	43	0
-5	-38	-43	0
5	38	44	0
-5	-38	-44	0
5	40	44	0
-5	-40	-44	0
5	43	44	0
-5	-43	-44	0
6	7	16	0
-6	-7	-16	0
6	7	19	0
-6	-7	-19	0
6	7	24	0
-6	-7	-24	0
6	7	25	0
-6	-7	-25	0
6	7	31	0
-6	-7	-31	0
6	7	33	0
-6	-7	-33	0
6	7	35	0
-6	-7	-35	0
6	9	16	0
-6	-9	-16	0
6	9	17	0
-6	-9	-17	0
6	9	20	0
-6	-9	-20	0
6	9	22	0
-6	-9	-22	0
6	9	24	0
-6	-9	-24	0
6	9	29	0
-6	-9	-29	0
6	9	33	0
-6	-9	-33	0
6	9	35	0
-6	-9	-35	0
6	16	24	0
-6	-16	-24	0
6	16	26	0
-6	-16	-26	0
6	16	33	0
-6	-16	-33	0
6	16	34	0
-6	-16	-34	0
6	16	38	0
-6	-16	-38	0
6	17	19	0
-6	-17	-19	0
6	17	20	0
-6	-17	-20	0
6	17	22	0
-6	-17	-22	0
6	17	24	0
-6	-17	-24	0
6	17	33	0
-6	-17	-33	0
6	17	34	0
-6	-17	-34	0
6	17	35	0
-6	-17	-35	0
6	19	20	0
-6	-19	-20	0
6	19	22	0
-6	-19	-22	0
6	19	24	0
-6	-19	-24	0
6	19	25	0
-6	-19	-25	0
6	19	31	0
-6	-19	-31	0
6	19	38	0
-6	-19	-38	0
6	20	22	0
-6	-20	-22	0
6	20	29	0
-6	-20	-29	0
6	20	38	0
-6	-20	-38	0
6	22	24	0
-6	-22	-24	0
6	22	25	0
-6	-22	-25	0
6	22	26	0
-6	-22	-26	0
6	22	29	0
-6	-22	-29	0
6	24	26	0
-6	-24	-26	0
6	24	33	0
-6	-24	-33	0
6	24	35	0
-6	-24	-35	0
6	24	38	0
-6	-24	-38	0
6	25	29	0
-6	-25	-29	0
6	25	35	0
-6	-25	-35	0
6	26	29	0
-6	-26	-29	0
6	26	31	0
-6	-26	-31	0
6	26	34	0
-6	-26	-34	0
6	31	34	0
-6	-31	-34	0
6	31	35	0
-6	-31	-35	0
6	33	34	0
-6	-33	-34	0
6	33	35	0
-6	-33	-35	0
6	34	35	0
-6	-34	-35	0
7	10	13	0
-7	-10	-13	0
7	10	15	0
-7	-10	-15	0
7	10	24	0
-7	-10	-24	0
7	10	25	0
-7	-10	-25	0
7	10	27	0
-7	-10	-27	0
7	10	31	0
-7	-10	-31	0
7	10	36	0
-7	-10	-36	0
7	10	40	0
-7	-10	-40	0
7	10	43	0
-7	-10	-43	0
7	12	13	0
-7	-12	-13	0
7	12	16	0
-7	-12	-16	0
7	12	21	0
-7	-12	-21	0
7	12	25	0
-7	-12	-25	0
7	12	27	0
-7	-12	-27	0
7	12	31	0
-7	-12	-31	0
7	12	33	0
-7	-12	-33	0
7	12	35	0
-7	-12	-35	0
7	13	15	0
-7	-13	-15	0
7	13	16	0
-7	-13	-16	0
7	13	24	0
-7	-13	-24	0
7	13	25	0
-7	-13	-25	0
7	13	33	0
-7	-13	-33	0
7	13	40	0
-7	-13	-40	0
7	13	43	0
-7	-13	-43	0
7	14	21	0
-7	-14	-21	0
7	14	24	0
-7	-14	-24	0
7	14	33	0
-7	-14	-33	0
7	14	35	0
-7	-14	-35	0
7	14	36	0
-7	-14	-36	0
7	14	40	0
-7	-14	-40	0
7	14	43	0
-7	-14	-43	0
7	15	16	0
-7	-15	-16	0
7	15	23	0
-7	-15	-23	0
7	15	27	0
-7	-15	-27	0
7	15	31	0
-7	-15	-31	0
7	15	33	0
-7	-15	-33	0
7	15	35	0
-7	-15	-35	0
7	15	36	0
-7	-15	-36	0
7	15	40	0
-7	-15	-40	0
7	16	24	0
-7	-16	-24	0
7	16	27	0
-7	-16	-27	0
7	16	33	0
-7	-16	-33	0
7	16	40	0
-7	-16	-40	0
7	19	24	0
-7	-19	-24	0
7	19	25	0
-7	-19	-25	0
7	19	27	0
-7	-19	-27	0
7	19	31	0
-7	-19	-31	0
7	19	36	0
-7	-19	-36	0
7	19	40	0
-7	-19	-40	0
7	19	43	0
-7	-19	-43	0
7	21	24	0
-7	-21	-24	0
7	21	25	0
-7	-21	-25	0
7	21	27	0
-7	-21	-27	0
7	21	33	0
-7	-21	-33	0
7	21	36	0
-7	-21	-36	0
7	21	40	0
-7	-21	-40	0
7	23	24	0
-7	-23	-24	0
7	23	25	0
-7	-23	-25	0
7	23	27	0
-7	-23	-27	0
7	23	31	0
-7	-23	-31	0
7	23	43	0
-7	-23	-43	0
7	24	33	0
-7	-24	-33	0
7	24	35	0
-7	-24	-35	0
7	24	40	0
-7	-24	-40	0
7	24	43	0
-7	-24	-43	0
7	25	27	0
-7	-25	-27	0
7	25	35	0
-7	-25	-35	0
7	25	43	0
-7	-25	-43	0
7	27	31	0
-7	-27	-31	0
7	27	33	0
-7	-27	-33	0
7	27	35	0
-7	-27	-35	0
7	27	36	0
-7	-27	-36	0
7	27	43	0
-7	-27	-43	0
7	31	35	0
-7	-31	-35	0
7	31	43	0
-7	-31	-43	0
7	33	35	0
-7	-33	-35	0
7	33	40	0
-7	-33	-40	0
7	35	36	0
-7	-35	-36	0
7	36	40	0
-7	-36	-40	0
8	10	13	0
-8	-10	-13	0
8	10	24	0
-8	-10	-24	0
8	10	27	0
-8	-10	-27	0
8	10	36	0
-8	-10	-36	0
8	10	38	0
-8	-10	-38	0
8	10	42	0
-8	-10	-42	0
8	11	14	0
-8	-11	-14	0
8	11	19	0
-8	-11	-19	0
8	11	32	0
-8	-11	-32	0
8	12	13	0
-8	-12	-13	0
8	12	17	0
-8	-12	-17	0
8	12	21	0
-8	-12	-21	0
8	12	27	0
-8	-12	-27	0
8	12	32	0
-8	-12	-32	0
8	12	42	0
-8	-12	-42	0
8	12	44	0
-8	-12	-44	0
8	13	22	0
-8	-13	-22	0
8	13	24	0
-8	-13	-24	0
8	13	34	0
-8	-13	-34	0
8	13	42	0
-8	-13	-42	0
8	13	44	0
-8	-13	-44	0
8	14	17	0
-8	-14	-17	0
8	14	21	0
-8	-14	-21	0
8	14	24	0
-8	-14	-24	0
8	14	32	0
-8	-14	-32	0
8	14	34	0
-8	-14	-34	0
8	14	36	0
-8	-14	-36	0
8	14	37	0
-8	-14	-37	0
8	14	38	0
-8	-14	-38	0
8	14	42	0
-8	-14	-42	0
8	17	19	0
-8	-17	-19	0
8	17	22	0
-8	-17	-22	0
8	17	24	0
-8	-17	-24	0
8	17	27	0
-8	-17	-27	0
8	17	32	0
-8	-17	-32	0
8	17	34	0
-8	-17	-34	0
8	17	42	0
-8	-17	-42	0
8	19	22	0
-8	-19	-22	0
8	19	24	0
-8	-19	-24	0
8	19	27	0
-8	-19	-27	0
8	19	36	0
-8	-19	-36	0
8	19	37	0
-8	-19	-37	0
8	19	38	0
-8	-19	-38	0
8	21	24	0
-8	-21	-24	0
8	21	27	0
-8	-21	-27	0
8	21	34	0
-8	-21	-34	0
8	21	36	0
-8	-21	-36	0
8	21	44	0
-8	-21	-44	0
8	22	23	0
-8	-22	-23	0
8	22	24	0
-8	-22	-24	0
8	22	32	0
-8	-22	-32	0
8	22	42	0
-8	-22	-42	0
8	23	24	0
-8	-23	-24	0
8	23	27	0
-8	-23	-27	0
8	23	32	0
-8	-23	-32	0
8	23	34	0
-8	-23	-34	0
8	23	38	0
-8	-23	-38	0
8	24	38	0
-8	-24	-38	0
8	24	42	0
-8	-24	-42	0
8	27	34	0
-8	-27	-34	0
8	27	36	0
-8	-27	-36	0
8	27	38	0
-8	-27	-38	0
8	27	44	0
-8	-27	-44	0
8	32	34	0
-8	-32	-34	0
8	32	36	0
-8	-32	-36	0
8	32	37	0
-8	-32	-37	0
8	32	38	0
-8	-32	-38	0
8	32	42	0
-8	-32	-42	0
8	34	36	0
-8	-34	-36	0
8	34	44	0
-8	-34	-44	0
8	36	38	0
-8	-36	-38	0
8	36	42	0
-8	-36	-42	0
8	36	44	0
-8	-36	-44	0
8	37	42	0
-8	-37	-42	0
8	38	44	0
-8	-38	-44	0
8	42	44	0
-8	-42	-44	0
9	10	24	0
-9	-10	-24	0
9	10	28	0
-9	-10	-28	0
9	10	41	0
-9	-10	-41	0
9	10	42	0
-9	-10	-42	0
9	16	24	0
-9	-16	-24	0
9	16	33	0
-9	-16	-33	0
9	16	41	0
-9	-16	-41	0
9	17	20	0
-9	-17	-20	0
9	17	22	0
-9	-17	-22	0
9	17	24	0
-9	-17	-24	0
9	17	32	0
-9	-17	-32	0
9	17	33	0
-9	-17	-33	0
9	17	35	0
-9	-17	-35	0
9	17	42	0
-9	-17	-42	0
9	20	22	0
-9	-20	-22	0
9	20	28	0
-9	-20	-28	0
9	20	29	0
-9	-20	-29	0
9	22	23	0
-9	-22	-23	0
9	22	24	0
-9	-22	-24	0
9	22	28	0
-9	-22	-28	0
9	22	29	0
-9	-22	-29	0
9	22	32	0
-9	-22	-32	0
9	22	42	0
-9	-22	-42	0
9	23	24	0
-9	-23	-24	0
9	23	28	0
-9	-23	-28	0
9	23	32	0
-9	-23	-32	0
9	23	41	0
-9	-23	-41	0
9	24	33	0
-9	-24	-33	0
9	24	35	0
-9	-24	-35	0
9	24	41	0
-9	-24	-41	0
9	24	42	0
-9	-24	-42	0
9	28	29	0
-9	-28	-29	0
9	28	42	0
-9	-28	-42	0
9	29	32	0
-9	-29	-32	0
9	29	41	0
-9	-29	-41	0
9	32	33	0
-9	-32	-33	0
9	32	42	0
-9	-32	-42	0
9	33	35	0
-9	-33	-35	0
9	35	41	0
-9	-35	-41	0
9	35	42	0
-9	-35	-42	0
10	13	15	0
-10	-13	-15	0
10	13	18	0
-10	-13	-18	0
10	13	24	0
-10	-13	-24	0
10	13	25	0
-10	-13	-25	0
10	13	26	0
-10	-13	-26	0
10	13	28	0
-10	-13	-28	0
10	13	30	0
-10	-13	-30	0
10	13	40	0
-10	-13	-40	0
10	13	42	0
-10	-13	-42	0
10	13	43	0
-10	-13	-43	0
10	15	27	0
-10	-15	-27	0
10	15	30	0
-10	-15	-30	0
10	15	31	0
-10	-15	-31	0
10	15	36	0
-10	-15	-36	0
10	15	40	0
-10	-15	-40	0
10	18	24	0
-10	-18	-24	0
10	18	25	0
-10	-18	-25	0
10	18	27	0
-10	-18	-27	0
10	18	28	0
-10	-18	-28	0
10	18	31	0
-10	-18	-31	0
10	18	36	0
-10	-18	-36	0
10	18	38	0
-10	-18	-38	0
10	18	41	0
-10	-18	-41	0
10	18	42	0
-10	-18	-42	0
10	24	26	0
-10	-24	-26	0
10	24	30	0
-10	-24	-30	0
10	24	38	0
-10	-24	-38	0
10	24	40	0
-10	-24	-40	0
10	24	41	0
-10	-24	-41	0
10	24	42	0
-10	-24	-42	0
10	24	43	0
-10	-24	-43	0
10	25	27	0
-10	-25	-27	0
10	25	42	0
-10	-25	-42	0
10	25	43	0
-10	-25	-43	0
10	26	28	0
-10	-26	-28	0
10	26	30	0
-10	-26	-30	0
10	26	31	0
-10	-26	-31	0
10	26	36	0
-10	-26	-36	0
10	26	40	0
-10	-26	-40	0
10	26	42	0
-10	-26	-42	0
10	26	43	0
-10	-26	-43	0
10	27	28	0
-10	-27	-28	0
10	27	30	0
-10	-27	-30	0
10	27	31	0
-10	-27	-31	0
10	27	36	0
-10	-27	-36	0
10	27	38	0
-10	-27	-38	0
10	27	41	0
-10	-27	-41	0
10	27	43	0
-10	-27	-43	0
10	28	31	0
-10	-28	-31	0
10	28	38	0
-10	-28	-38	0
10	28	42	0
-10	-28	-42	0
10	28	43	0
-10	-28	-43	0
10	30	31	0
-10	-30	-31	0
10	30	36	0
-10	-30	-36	0
10	30	40	0
-10	-30	-40	0
10	30	41	0
-10	-30	-41	0
10	31	43	0
-10	-31	-43	0
10	36	38	0
-10	-36	-38	0
10	36	40	0
-10	-36	-40	0
10	36	41	0
-10	-36	-41	0
10	36	42	0
-10	-36	-42	0
10	38	41	0
-10	-38	-41	0
10	38	43	0
-10	-38	-43	0
10	40	41	0
-10	-40	-41	0
10	41	43	0
-10	-41	-43	0
11	14	26	0
-11	-14	-26	0
11	14	28	0
-11	-14	-28	0
11	14	29	0
-11	-14	-29	0
11	14	32	0
-11	-14	-32	0
11	14	35	0
-11	-14	-35	0
11	14	40	0
-11	-14	-40	0
11	15	16	0
-11	-15	-16	0
11	15	31	0
-11	-15	-31	0
11	15	32	0
-11	-15	-32	0
11	15	35	0
-11	-15	-35	0
11	15	39	0
-11	-15	-39	0
11	15	40	0
-11	-15	-40	0
11	16	18	0
-11	-16	-18	0
11	16	26	0
-11	-16	-26	0
11	16	39	0
-11	-16	-39	0
11	16	40	0
-11	-16	-40	0
11	16	41	0
-11	-16	-41	0
11	18	25	0
-11	-18	-25	0
11	18	28	0
-11	-18	-28	0
11	18	29	0
-11	-18	-29	0
11	18	31	0
-11	-18	-31	0
11	18	39	0
-11	-18	-39	0
11	18	41	0
-11	-18	-41	0
11	19	25	0
-11	-19	-25	0
11	19	28	0
-11	-19	-28	0
11	19	31	0
-11	-19	-31	0
11	19	39	0
-11	-19	-39	0
11	19	40	0
-11	-19	-40	0
11	25	29	0
-11	-25	-29	0
11	25	32	0
-11	-25	-32	0
11	25	35	0
-11	-25	-35	0
11	26	28	0
-11	-26	-28	0
11	26	29	0
-11	-26	-29	0
11	26	31	0
-11	-26	-31	0
11	26	40	0
-11	-26	-40	0
11	28	29	0
-11	-28	-29	0
11	28	31	0
-11	-28	-31	0
11	29	32	0
-11	-29	-32	0
11	29	39	0
-11	-29	-39	0
11	29	41	0
-11	-29	-41	0
11	31	35	0
-11	-31	-35	0
11	32	40	0
-11	-32	-40	0
11	35	39	0
-11	-35	-39	0
11	35	41	0
-11	-35	-41	0
11	39	40	0
-11	-39	-40	0
11	39	41	0
-11	-39	-41	0
11	40	41	0
-11	-40	-41	0
12	13	16	0
-12	-13	-16	0
12	13	18	0
-12	-13	-18	0
12	13	20	0
-12	-13	-20	0
12	13	25	0
-12	-13	-25	0
12	13	26	0
-12	-13	-26	0
12	13	30	0
-12	-13	-30	0
12	13	33	0
-12	-13	-33	0
12	13	42	0
-12	-13	-42	0
12	13	44	0
-12	-13	-44	0
12	16	18	0
-12	-16	-18	0
12	16	26	0
-12	-16	-26	0
12	16	27	0
-12	-16	-27	0
12	16	33	0
-12	-16	-33	0
12	16	41	0
-12	-16	-41	0
12	17	18	0
-12	-17	-18	0
12	17	20	0
-12	-17	-20	0
12	17	27	0
-12	-17	-27	0
12	17	30	0
-12	-17	-30	0
12	17	32	0
-12	-17	-32	0
12	17	33	0
-12	-17	-33	0
12	17	35	0
-12	-17	-35	0
12	17	42	0
-12	-17	-42	0
12	18	20	0
-12	-18	-20	0
12	18	21	0
-12	-18	-21	0
12	18	25	0
-12	-18	-25	0
12	18	27	0
-12	-18	-27	0
12	18	29	0
-12	-18	-29	0
12	18	31	0
-12	-18	-31	0
12	18	33	0
-12	-18	-33	0
12	18	41	0
-12	-18	-41	0
12	18	42	0
-12	-18	-42	0
12	18	44	0
-12	-18	-44	0
12	20	29	0
-12	-20	-29	0
12	20	30	0
-12	-20	-30	0
12	20	44	0
-12	-20	-44	0
12	21	25	0
-12	-21	-25	0
12	21	27	0
-12	-21	-27	0
12	21	33	0
-12	-21	-33	0
12	21	44	0
-12	-21	-44	0
12	25	27	0
-12	-25	-27	0
12	25	29	0
-12	-25	-29	0
12	25	32	0
-12	-25	-32	0
12	25	35	0
-12	-25	-35	0
12	25	42	0
-12	-25	-42	0
12	26	29	0
-12	-26	-29	0
12	26	30	0
-12	-26	-30	0
12	26	31	0
-12	-26	-31	0
12	26	42	0
-12	-26	-42	0
12	27	29	0
-12	-27	-29	0
12	27	30	0
-12	-27	-30	0
12	27	31	0
-12	-27	-31	0
12	27	33	0
-12	-27	-33	0
12	27	35	0
-12	-27	-35	0
12	27	41	0
-12	-27	-41	0
12	27	44	0
-12	-27	-44	0
12	29	32	0
-12	-29	-32	0
12	29	41	0
-12	-29	-41	0
12	29	44	0
-12	-29	-44	0
12	30	31	0
-12	-30	-31	0
12	30	33	0
-12	-30	-33	0
12	30	41	0
-12	-30	-41	0
12	30	44	0
-12	-30	-44	0
12	31	35	0
-12	-31	-35	0
12	32	33	0
-12	-32	-33	0
12	32	42	0
-12	-32	-42	0
12	33	35	0
-12	-33	-35	0
12	35	41	0
-12	-35	-41	0
12	35	42	0
-12	-35	-42	0
12	35	44	0
-12	-35	-44	0
12	42	44	0
-12	-42	-44	0
13	15	16	0
-13	-15	-16	0
13	15	30	0
-13	-15	-30	0
13	15	33	0
-13	-15	-33	0
13	15	34	0
-13	-15	-34	0
13	15	40	0
-13	-15	-40	0
13	15	44	0
-13	-15	-44	0
13	16	18	0
-13	-16	-18	0
13	16	24	0
-13	-16	-24	0
13	16	26	0
-13	-16	-26	0
13	16	33	0
-13	-16	-33	0
13	16	34	0
-13	-16	-34	0
13	16	40	0
-13	-16	-40	0
13	18	20	0
-13	-18	-20	0
13	18	24	0
-13	-18	-24	0
13	18	25	0
-13	-18	-25	0
13	18	28	0
-13	-18	-28	0
13	18	33	0
-13	-18	-33	0
13	18	42	0
-13	-18	-42	0
13	18	44	0
-13	-18	-44	0
13	20	22	0
-13	-20	-22	0
13	20	28	0
-13	-20	-28	0
13	20	30	0
-13	-20	-30	0
13	20	40	0
-13	-20	-40	0
13	20	44	0
-13	-20	-44	0
13	22	24	0
-13	-22	-24	0
13	22	25	0
-13	-22	-25	0
13	22	26	0
-13	-22	-26	0
13	22	28	0
-13	-22	-28	0
13	22	42	0
-13	-22	-42	0
13	22	43	0
-13	-22	-43	0
13	24	26	0
-13	-24	-26	0
13	24	30	0
-13	-24	-30	0
13	24	33	0
-13	-24	-33	0
13	24	40	0
-13	-24	-40	0
13	24	42	0
-13	-24	-42	0
13	24	43	0
-13	-24	-43	0
13	25	42	0
-13	-25	-42	0
13	25	43	0
-13	-25	-43	0
13	26	28	0
-13	-26	-28	0
13	26	30	0
-13	-26	-30	0
13	26	34	0
-13	-26	-34	0
13	26	40	0
-13	-26	-40	0
13	26	42	0
-13	-26	-42	0
13	26	43	0
-13	-26	-43	0
13	28	34	0
-13	-28	-34	0
13	28	42	0
-13	-28	-42	0
13	28	43	0
-13	-28	-43	0
13	30	33	0
-13	-30	-33	0
13	30	40	0
-13	-30	-40	0
13	30	44	0
-13	-30	-44	0
13	33	34	0
-13	-33	-34	0
13	33	40	0
-13	-33	-40	0
13	34	40	0
-13	-34	-40	0
13	34	44	0
-13	-34	-44	0
13	40	44	0
-13	-40	-44	0
13	42	44	0
-13	-42	-44	0
13	43	44	0
-13	-43	-44	0
14	17	24	0
-14	-17	-24	0
14	17	30	0
-14	-17	-30	0
14	17	32	0
-14	-17	-32	0
14	17	33	0
-14	-17	-33	0
14	17	34	0
-14	-17	-34	0
14	17	35	0
-14	-17	-35	0
14	17	40	0
-14	-17	-40	0
14	17	42	0
-14	-17	-42	0
14	21	24	0
-14	-21	-24	0
14	21	28	0
-14	-21	-28	0
14	21	33	0
-14	-21	-33	0
14	21	34	0
-14	-21	-34	0
14	21	36	0
-14	-21	-36	0
14	21	40	0
-14	-21	-40	0
14	24	26	0
-14	-24	-26	0
14	24	30	0
-14	-24	-30	0
14	24	33	0
-14	-24	-33	0
14	24	35	0
-14	-24	-35	0
14	24	38	0
-14	-24	-38	0
14	24	40	0
-14	-24	-40	0
14	24	42	0
-14	-24	-42	0
14	24	43	0
-14	-24	-43	0
14	26	28	0
-14	-26	-28	0
14	26	29	0
-14	-26	-29	0
14	26	30	0
-14	-26	-30	0
14	26	34	0
-14	-26	-34	0
14	26	36	0
-14	-26	-36	0
14	26	40	0
-14	-26	-40	0
14	26	42	0
-14	-26	-42	0
14	26	43	0
-14	-26	-43	0
14	28	29	0
-14	-28	-29	0
14	28	34	0
-14	-28	-34	0
14	28	38	0
-14	-28	-38	0
14	28	42	0
-14	-28	-42	0
14	28	43	0
-14	-28	-43	0
14	29	32	0
-14	-29	-32	0
14	29	36	0
-14	-29	-36	0
14	29	37	0
-14	-29	-37	0
14	29	43	0
-14	-29	-43	0
14	30	33	0
-14	-30	-33	0
14	30	36	0
-14	-30	-36	0
14	30	37	0
-14	-30	-37	0
14	30	40	0
-14	-30	-40	0
14	32	33	0
-14	-32	-33	0
14	32	34	0
-14	-32	-34	0
14	32	36	0
-14	-32	-36	0
14	32	37	0
-14	-32	-37	0
14	32	38	0
-14	-32	-38	0
14	32	40	0
-14	-32	-40	0
14	32	42	0
-14	-32	-42	0
14	32	43	0
-14	-32	-43	0
14	33	34	0
-14	-33	-34	0
14	33	35	0
-14	-33	-35	0
14	33	40	0
-14	-33	-40	0
14	34	35	0
-14	-34	-35	0
14	34	36	0
-14	-34	-36	0
14	34	40	0
-14	-34	-40	0
14	35	36	0
-14	-35	-36	0
14	35	37	0
-14	-35	-37	0
14	35	42	0
-14	-35	-42	0
14	36	38	0
-14	-36	-38	0
14	36	40	0
-14	-36	-40	0
14	36	42	0
-14	-36	-42	0
14	37	42	0
-14	-37	-42	0
14	37	43	0
-14	-37	-43	0
14	38	43	0
-14	-38	-43	0
15	16	27	0
-15	-16	-27	0
15	16	33	0
-15	-16	-33	0
15	16	34	0
-15	-16	-34	0
15	16	39	0
-15	-16	-39	0
15	16	40	0
-15	-16	-40	0
15	23	27	0
-15	-23	-27	0
15	23	30	0
-15	-23	-30	0
15	23	31	0
-15	-23	-31	0
15	23	32	0
-15	-23	-32	0
15	23	34	0
-15	-23	-34	0
15	27	30	0
-15	-27	-30	0
15	27	31	0
-15	-27	-31	0
15	27	33	0
-15	-27	-33	0
15	27	34	0
-15	-27	-34	0
15	27	35	0
-15	-27	-35	0
15	27	36	0
-15	-27	-36	0
15	27	44	0
-15	-27	-44	0
15	30	31	0
-15	-30	-31	0
15	30	33	0
-15	-30	-33	0
15	30	36	0
-15	-30	-36	0
15	30	37	0
-15	-30	-37	0
15	30	39	0
-15	-30	-39	0
15	30	40	0
-15	-30	-40	0
15	30	44	0
-15	-30	-44	0
15	31	34	0
-15	-31	-34	0
15	31	35	0
-15	-31	-35	0
15	32	33	0
-15	-32	-33	0
15	32	34	0
-15	-32	-34	0
15	32	36	0
-15	-32	-36	0
15	32	37	0
-15	-32	-37	0
15	32	40	0
-15	-32	-40	0
15	33	34	0
-15	-33	-34	0
15	33	35	0
-15	-33	-35	0
15	33	39	0
-15	-33	-39	0
15	33	40	0
-15	-33	-40	0
15	34	35	0
-15	-34	-35	0
15	34	36	0
-15	-34	-36	0
15	34	40	0
-15	-34	-40	0
15	34	44	0
-15	-34	-44	0
15	35	36	0
-15	-35	-36	0
15	35	37	0
-15	-35	-37	0
15	35	39	0
-15	-35	-39	0
15	35	44	0
-15	-35	-44	0
15	36	40	0
-15	-36	-40	0
15	36	44	0
-15	-36	-44	0
15	37	39	0
-15	-37	-39	0
15	39	40	0
-15	-39	-40	0
15	39	44	0
-15	-39	-44	0
15	40	44	0
-15	-40	-44	0
16	18	24	0
-16	-18	-24	0
16	18	27	0
-16	-18	-27	0
16	18	33	0
-16	-18	-33	0
16	18	38	0
-16	-18	-38	0
16	18	39	0
-16	-18	-39	0
16	18	41	0
-16	-18	-41	0
16	24	26	0
-16	-24	-26	0
16	24	33	0
-16	-24	-33	0
16	24	38	0
-16	-24	-38	0
16	24	40	0
-16	-24	-40	0
16	24	41	0
-16	-24	-41	0
16	26	34	0
-16	-26	-34	0
16	26	40	0
-16	-26	-40	0
16	27	33	0
-16	-27	-33	0
16	27	34	0
-16	-27	-34	0
16	27	38	0
-16	-27	-38	0
16	27	41	0
-16	-27	-41	0
16	33	34	0
-16	-33	-34	0
16	33	39	0
-16	-33	-39	0
16	33	40	0
-16	-33	-40	0
16	34	40	0
-16	-34	-40	0
16	34	41	0
-16	-34	-41	0
16	38	41	0
-16	-38	-41	0
16	39	40	0
-16	-39	-40	0
16	39	41	0
-16	-39	-41	0
16	40	41	0
-16	-40	-41	0
17	18	20	0
-17	-18	-20	0
17	18	24	0
-17	-18	-24	0
17	18	27	0
-17	-18	-27	0
17	18	33	0
-17	-18	-33	0
17	18	42	0
-17	-18	-42	0
17	19	20	0
-17	-19	-20	0
17	19	22	0
-17	-19	-22	0
17	19	24	0
-17	-19	-24	0
17	19	27	0
-17	-19	-27	0
17	19	30	0
-17	-19	-30	0
17	19	40	0
-17	-19	-40	0
17	20	22	0
-17	-20	-22	0
17	20	30	0
-17	-20	-30	0
17	20	40	0
-17	-20	-40	0
17	22	24	0
-17	-22	-24	0
17	22	32	0
-17	-22	-32	0
17	22	42	0
-17	-22	-42	0
17	24	30	0
-17	-24	-30	0
17	24	33	0
-17	-24	-33	0
17	24	35	0
-17	-24	-35	0
17	24	40	0
-17	-24	-40	0
17	24	42	0
-17	-24	-42	0
17	27	30	0
-17	-27	-30	0
17	27	33	0
-17	-27	-33	0
17	27	34	0
-17	-27	-34	0
17	27	35	0
-17	-27	-35	0
17	30	33	0
-17	-30	-33	0
17	30	40	0
-17	-30	-40	0
17	32	33	0
-17	-32	-33	0
17	32	34	0
-17	-32	-34	0
17	32	40	0
-17	-32	-40	0
17	32	42	0
-17	-32	-42	0
17	33	34	0
-17	-33	-34	0
17	33	35	0
-17	-33	-35	0
17	33	40	0
-17	-33	-40	0
17	34	35	0
-17	-34	-35	0
17	34	40	0
-17	-34	-40	0
17	35	42	0
-17	-35	-42	0
18	20	28	0
-18	-20	-28	0
18	20	29	0
-18	-20	-29	0
18	20	37	0
-18	-20	-37	0
18	20	38	0
-18	-20	-38	0
18	20	39	0
-18	-20	-39	0
18	20	44	0
-18	-20	-44	0
18	21	24	0
-18	-21	-24	0
18	21	25	0
-18	-21	-25	0
18	21	27	0
-18	-21	-27	0
18	21	28	0
-18	-21	-28	0
18	21	33	0
-18	-21	-33	0
18	21	36	0
-18	-21	-36	0
18	21	39	0
-18	-21	-39	0
18	21	44	0
-18	-21	-44	0
18	23	24	0
-18	-23	-24	0
18	23	25	0
-18	-23	-25	0
18	23	27	0
-18	-23	-27	0
18	23	28	0
-18	-23	-28	0
18	23	31	0
-18	-23	-31	0
18	23	38	0
-18	-23	-38	0
18	23	41	0
-18	-23	-41	0
18	24	33	0
-18	-24	-33	0
18	24	38	0
-18	-24	-38	0
18	24	41	0
-18	-24	-41	0
18	24	42	0
-18	-24	-42	0
18	25	27	0
-18	-25	-27	0
18	25	29	0
-18	-25	-29	0
18	25	42	0
-18	-25	-42	0
18	27	28	0
-18	-27	-28	0
18	27	29	0
-18	-27	-29	0
18	27	31	0
-18	-27	-31	0
18	27	33	0
-18	-27	-33	0
18	27	36	0
-18	-27	-36	0
18	27	38	0
-18	-27	-38	0
18	27	41	0
-18	-27	-41	0
18	27	44	0
-18	-27	-44	0
18	28	29	0
-18	-28	-29	0
18	28	31	0
-18	-28	-31	0
18	28	38	0
-18	-28	-38	0
18	28	42	0
-18	-28	-42	0
18	29	36	0
-18	-29	-36	0
18	29	37	0
-18	-29	-37	0
18	29	39	0
-18	-29	-39	0
18	29	41	0
-18	-29	-41	0
18	29	44	0
-18	-29	-44	0
18	33	39	0
-18	-33	-39	0
18	36	38	0
-18	-36	-38	0
18	36	41	0
-18	-36	-41	0
18	36	42	0
-18	-36	-42	0
18	36	44	0
-18	-36	-44	0
18	37	39	0
-18	-37	-39	0
18	37	41	0
-18	-37	-41	0
18	37	42	0
-18	-37	-42	0
18	38	41	0
-18	-38	-41	0
18	38	44	0
-18	-38	-44	0
18	39	41	0
-18	-39	-41	0
18	39	42	0
-18	-39	-42	0
18	39	44	0
-18	-39	-44	0
18	42	44	0
-18	-42	-44	0
19	20	22	0
-19	-20	-22	0
19	20	28	0
-19	-20	-28	0
19	20	30	0
-19	-20	-30	0
19	20	37	0
-19	-20	-37	0
19	20	38	0
-19	-20	-38	0
19	20	39	0
-19	-20	-39	0
19	20	40	0
-19	-20	-40	0
19	22	24	0
-19	-22	-24	0
19	22	25	0
-19	-22	-25	0
19	22	28	0
-19	-22	-28	0
19	22	43	0
-19	-22	-43	0
19	24	30	0
-19	-24	-30	0
19	24	38	0
-19	-24	-38	0
19	24	40	0
-19	-24	-40	0
19	24	43	0
-19	-24	-43	0
19	25	27	0
-19	-25	-27	0
19	25	43	0
-19	-25	-43	0
19	27	28	0
-19	-27	-28	0
19	27	30	0
-19	-27	-30	0
19	27	31	0
-19	-27	-31	0
19	27	36	0
-19	-27	-36	0
19	27	38	0
-19	-27	-38	0
19	27	43	0
-19	-27	-43	0
19	28	31	0
-19	-28	-31	0
19	28	38	0
-19	-28	-38	0
19	28	43	0
-19	-28	-43	0
19	30	31	0
-19	-30	-31	0
19	30	36	0
-19	-30	-36	0
19	30	37	0
-19	-30	-37	0
19	30	39	0
-19	-30	-39	0
19	30	40	0
-19	-30	-40	0
19	31	43	0
-19	-31	-43	0
19	36	38	0
-19	-36	-38	0
19	36	40	0
-19	-36	-40	0
19	37	39	0
-19	-37	-39	0
19	37	43	0
-19	-37	-43	0
19	38	43	0
-19	-38	-43	0
19	39	40	0
-19	-39	-40	0
20	22	28	0
-20	-22	-28	0
20	22	29	0
-20	-22	-29	0
20	28	29	0
-20	-28	-29	0
20	28	38	0
-20	-28	-38	0
20	29	37	0
-20	-29	-37	0
20	29	39	0
-20	-29	-39	0
20	29	44	0
-20	-29	-44	0
20	30	37	0
-20	-30	-37	0
20	30	39	0
-20	-30	-39	0
20	30	40	0
-20	-30	-40	0
20	30	44	0
-20	-30	-44	0
20	37	39	0
-20	-37	-39	0
20	38	44	0
-20	-38	-44	0
20	39	40	0
-20	-39	-40	0
20	39	44	0
-20	-39	-44	0
20	40	44	0
-20	-40	-44	0
21	24	33	0
-21	-24	-33	0
21	24	40	0
-21	-24	-40	0
21	25	27	0
-21	-25	-27	0
21	27	28	0
-21	-27	-28	0
21	27	33	0
-21	-27	-33	0
21	27	34	0
-21	-27	-34	0
21	27	36	0
-21	-27	-36	0
21	27	44	0
-21	-27	-44	0
21	28	34	0
-21	-28	-34	0
21	33	34	0
-21	-33	-34	0
21	33	39	0
-21	-33	-39	0
21	33	40	0
-21	-33	-40	0
21	34	36	0
-21	-34	-36	0
21	34	40	0
-21	-34	-40	0
21	34	44	0
-21	-34	-44	0
21	36	40	0
-21	-36	-40	0
21	36	44	0
-21	-36	-44	0
21	39	40	0
-21	-39	-40	0
21	39	44	0
-21	-39	-44	0
21	40	44	0
-21	-40	-44	0
22	23	24	0
-22	-23	-24	0
22	23	25	0
-22	-23	-25	0
22	23	26	0
-22	-23	-26	0
22	23	28	0
-22	-23	-28	0
22	23	32	0
-22	-23	-32	0
22	23	43	0
-22	-23	-43	0
22	24	26	0
-22	-24	-26	0
22	24	42	0
-22	-24	-42	0
22	24	43	0
-22	-24	-43	0
22	25	29	0
-22	-25	-29	0
22	25	32	0
-22	-25	-32	0
22	25	42	0
-22	-25	-42	0
22	25	43	0
-22	-25	-43	0
22	26	28	0
-22	-26	-28	0
22	26	29	0
-22	-26	-29	0
22	26	42	0
-22	-26	-42	0
22	26	43	0
-22	-26	-43	0
22	28	29	0
-22	-28	-29	0
22	28	42	0
-22	-28	-42	0
22	28	43	0
-22	-28	-43	0
22	29	32	0
-22	-29	-32	0
22	29	43	0
-22	-29	-43	0
22	32	42	0
-22	-32	-42	0
22	32	43	0
-22	-32	-43	0
23	24	26	0
-23	-24	-26	0
23	24	30	0
-23	-24	-30	0
23	24	38	0
-23	-24	-38	0
23	24	41	0
-23	-24	-41	0
23	24	43	0
-23	-24	-43	0
23	25	27	0
-23	-25	-27	0
23	25	32	0
-23	-25	-32	0
23	25	43	0
-23	-25	-43	0
23	26	28	0
-23	-26	-28	0
23	26	30	0
-23	-26	-30	0
23	26	31	0
-23	-26	-31	0
23	26	34	0
-23	-26	-34	0
23	26	43	0
-23	-26	-43	0
23	27	28	0
-23	-27	-28	0
23	27	30	0
-23	-27	-30	0
23	27	31	0
-23	-27	-31	0
23	27	34	0
-23	-27	-34	0
23	27	38	0
-23	-27	-38	0
23	27	41	0
-23	-27	-41	0
23	27	43	0
-23	-27	-43	0
23	28	31	0
-23	-28	-31	0
23	28	34	0
-23	-28	-34	0
23	28	38	0
-23	-28	-38	0
23	28	43	0
-23	-28	-43	0
23	30	31	0
-23	-30	-31	0
23	30	41	0
-23	-30	-41	0
23	31	34	0
-23	-31	-34	0
23	31	43	0
-23	-31	-43	0
23	32	34	0
-23	-32	-34	0
23	32	38	0
-23	-32	-38	0
23	32	43	0
-23	-32	-43	0
23	34	41	0
-23	-34	-41	0
23	38	41	0
-23	-38	-41	0
23	38	43	0
-23	-38	-43	0
23	41	43	0
-23	-41	-43	0
24	26	30	0
-24	-26	-30	0
24	26	40	0
-24	-26	-40	0
24	26	42	0
-24	-26	-42	0
24	26	43	0
-24	-26	-43	0
24	30	33	0
-24	-30	-33	0
24	30	40	0
-24	-30	-40	0
24	30	41	0
-24	-30	-41	0
24	33	35	0
-24	-33	-35	0
24	33	40	0
-24	-33	-40	0
24	35	41	0
-24	-35	-41	0
24	35	42	0
-24	-35	-42	0
24	38	41	0
-24	-38	-41	0
24	38	43	0
-24	-38	-43	0
24	40	41	0
-24	-40	-41	0
24	41	43	0
-24	-41	-43	0
25	27	29	0
-25	-27	-29	0
25	27	35	0
-25	-27	-35	0
25	27	43	0
-25	-27	-43	0
25	29	32	0
-25	-29	-32	0
25	29	43	0
-25	-29	-43	0
25	32	42	0
-25	-32	-42	0
25	32	43	0
-25	-32	-43	0
25	35	42	0
-25	-35	-42	0
26	28	29	0
-26	-28	-29	0
26	28	31	0
-26	-28	-31	0
26	28	34	0
-26	-28	-34	0
26	28	42	0
-26	-28	-42	0
26	28	43	0
-26	-28	-43	0
26	29	36	0
-26	-29	-36	0
26	29	43	0
-26	-29	-43	0
26	30	31	0
-26	-30	-31	0
26	30	36	0
-26	-30	-36	0
26	30	40	0
-26	-30	-40	0
26	31	34	0
-26	-31	-34	0
26	31	43	0
-26	-31	-43	0
26	34	36	0
-26	-34	-36	0
26	34	40	0
-26	-34	-40	0
26	36	40	0
-26	-36	-40	0
26	36	42	0
-26	-36	-42	0
27	28	29	0
-27	-28	-29	0
27	28	31	0
-27	-28	-31	0
27	28	34	0
-27	-28	-34	0
27	28	38	0
-27	-28	-38	0
27	28	43	0
-27	-28	-43	0
27	29	36	0
-27	-29	-36	0
27	29	41	0
-27	-29	-41	0
27	29	43	0
-27	-29	-43	0
27	29	44	0
-27	-29	-44	0
27	30	31	0
-27	-30	-31	0
27	30	33	0
-27	-30	-33	0
27	30	36	0
-27	-30	-36	0
27	30	41	0
-27	-30	-41	0
27	30	44	0
-27	-30	-44	0
27	31	34	0
-27	-31	-34	0
27	31	35	0
-27	-31	-35	0
27	31	43	0
-27	-31	-43	0
27	33	34	0
-27	-33	-34	0
27	33	35	0
-27	-33	-35	0
27	34	35	0
-27	-34	-35	0
27	34	36	0
-27	-34	-36	0
27	34	41	0
-27	-34	-41	0
27	34	44	0
-27	-34	-44	0
27	35	36	0
-27	-35	-36	0
27	35	41	0
-27	-35	-41	0
27	35	44	0
-27	-35	-44	0
27	36	38	0
-27	-36	-38	0
27	36	41	0
-27	-36	-41	0
27	36	44	0
-27	-36	-44	0
27	38	41	0
-27	-38	-41	0
27	38	43	0
-27	-38	-43	0
27	38	44	0
-27	-38	-44	0
27	41	43	0
-27	-41	-43	0
27	43	44	0
-27	-43	-44	0
28	29	43	0
-28	-29	-43	0
28	31	34	0
-28	-31	-34	0
28	31	43	0
-28	-31	-43	0
28	38	43	0
-28	-38	-43	0
29	32	36	0
-29	-32	-36	0
29	32	37	0
-29	-32	-37	0
29	32	43	0
-29	-32	-43	0
29	36	41	0
-29	-36	-41	0
29	36	44	0
-29	-36	-44	0
29	37	39	0
-29	-37	-39	0
29	37	41	0
-29	-37	-41	0
29	37	43	0
-29	-37	-43	0
29	39	41	0
-29	-39	-41	0
29	39	44	0
-29	-39	-44	0
29	41	43	0
-29	-41	-43	0
29	43	44	0
-29	-43	-44	0
30	33	39	0
-30	-33	-39	0
30	33	40	0
-30	-33	-40	0
30	36	40	0
-30	-36	-40	0
30	36	41	0
-30	-36	-41	0
30	36	44	0
-30	-36	-44	0
30	37	39	0
-30	-37	-39	0
30	37	41	0
-30	-37	-41	0
30	39	40	0
-30	-39	-40	0
30	39	41	0
-30	-39	-41	0
30	39	44	0
-30	-39	-44	0
30	40	41	0
-30	-40	-41	0
30	40	44	0
-30	-40	-44	0
31	34	35	0
-31	-34	-35	0
32	33	34	0
-32	-33	-34	0
32	33	40	0
-32	-33	-40	0
32	34	36	0
-32	-34	-36	0
32	34	40	0
-32	-34	-40	0
32	36	38	0
-32	-36	-38	0
32	36	40	0
-32	-36	-40	0
32	36	42	0
-32	-36	-42	0
32	37	42	0
-32	-37	-42	0
32	37	43	0
-32	-37	-43	0
32	38	43	0
-32	-38	-43	0
33	34	35	0
-33	-34	-35	0
33	34	40	0
-33	-34	-40	0
33	35	39	0
-33	-35	-39	0
33	39	40	0
-33	-39	-40	0
34	35	36	0
-34	-35	-36	0
34	35	41	0
-34	-35	-41	0
34	35	44	0
-34	-35	-44	0
34	36	40	0
-34	-36	-40	0
34	36	41	0
-34	-36	-41	0
34	36	44	0
-34	-36	-44	0
34	40	41	0
-34	-40	-41	0
34	40	44	0
-34	-40	-44	0
35	36	41	0
-35	-36	-41	0
35	36	42	0
-35	-36	-42	0
35	36	44	0
-35	-36	-44	0
35	37	39	0
-35	-37	-39	0
35	37	41	0
-35	-37	-41	0
35	37	42	0
-35	-37	-42	0
35	39	41	0
-35	-39	-41	0
35	39	42	0
-35	-39	-42	0
35	39	44	0
-35	-39	-44	0
35	42	44	0
-35	-42	-44	0
36	38	41	0
-36	-38	-41	0
36	38	44	0
-36	-38	-44	0
36	40	41	0
-36	-40	-41	0
36	40	44	0
-36	-40	-44	0
36	42	44	0
-36	-42	-44	0
37	39	41	0
-37	-39	-41	0
37	39	42	0
-37	-39	-42	0
37	41	43	0
-37	-41	-43	0
38	41	43	0
-38	-41	-43	0
38	43	44	0
-38	-43	-44	0
39	40	41	0
-39	-40	-41	0
39	40	44	0
-39	-40	-44	0
39	42	44	0
-39	-42	-44	0